Version identifier: 20.1.0.0 | 2020-11-10 | 9bedb6d68
Tried aggregator 2 times.
MIP Presolve eliminated 1754 rows and 1003 columns.
MIP Presolve modified 3378 coefficients.
Aggregator did 190 substitutions.
Reduced MIP has 1462 rows, 1214 columns, and 4655 nonzeros.
Reduced MIP has 323 binaries, 891 generals, 0 SOSs, and 0 indicators.
Presolve time = 0.02 sec. (7.68 ticks)
Found incumbent of value 58.000000 after 0.03 sec. (13.04 ticks)
Probing fixed 40 vars, tightened 289 bounds.
Probing time = 0.00 sec. (1.67 ticks)
Tried aggregator 1 time.
Detecting symmetries...
MIP Presolve eliminated 600 rows and 40 columns.
MIP Presolve modified 79 coefficients.
Reduced MIP has 862 rows, 1174 columns, and 2815 nonzeros.
Reduced MIP has 457 binaries, 717 generals, 0 SOSs, and 0 indicators.
Presolve time = 0.01 sec. (3.41 ticks)
Probing time = 0.00 sec. (0.26 ticks)
Clique table members: 81.
MIP emphasis: balance optimality and feasibility.
MIP search method: dynamic search.
Parallel mode: deterministic, using up to 24 threads.
Root relaxation solution time = 0.01 sec. (2.82 ticks)

        Nodes                                         Cuts/
   Node  Left     Objective  IInf  Best Integer    Best Bound    ItCnt     Gap

*     0+    0                           58.0000        0.0000           100.00%
      0     0        0.0000    67       58.0000        0.0000      252  100.00%
*     0+    0                           18.0000        0.0000           100.00%
      0     0        0.0000    57       18.0000     Cuts: 150      418  100.00%
      0     0        0.1000    76       18.0000      Cuts: 69      559   99.44%
      0     0        1.0000   227       18.0000      Cuts: 65      632   94.44%
      0     0        1.0000   208       18.0000      Cuts: 67      693   94.44%
      0     0        1.0435   274       18.0000      Cuts: 69      861   94.20%
      0     0        1.5000   236       18.0000      Cuts: 99      946   91.67%
      0     0        2.0000   243       18.0000      Cuts: 55     1015   88.89%
*     0+    0                           10.0000        2.0000            80.00%
      0     0        cutoff             10.0000       10.0000     1092    0.00%
Elapsed time = 0.25 sec. (97.22 ticks, tree = 0.01 MB, solutions = 3)

Cover cuts applied:  5
Implied bound cuts applied:  32
Flow cuts applied:  9
Mixed integer rounding cuts applied:  35
Zero-half cuts applied:  151
Gomory fractional cuts applied:  26

Root node processing (before b&c):
  Real time             =    0.25 sec. (97.35 ticks)
Parallel b&c, 24 threads:
  Real time             =    0.00 sec. (0.00 ticks)
  Sync time (average)   =    0.00 sec.
  Wait time (average)   =    0.00 sec.
                          ------------
Total (root+branch&cut) =    0.25 sec. (97.35 ticks)

Solution status = Optimal
Solution LB = 10
Solution UB = 10
Runtime = 0.259595 seconds
	Command being timed: "/home/min/git_repos/CS598MEBProject/CNT-ILP/build/cnt -s 2 ./output/k6_n40/simC_c1_k6_n40_u1_s2_del04.input-right.cnp"
	User time (seconds): 2.76
	System time (seconds): 0.07
	Percent of CPU this job got: 990%
	Elapsed (wall clock) time (h:mm:ss or m:ss): 0:00.28
	Average shared text size (kbytes): 0
	Average unshared data size (kbytes): 0
	Average stack size (kbytes): 0
	Average total size (kbytes): 0
	Maximum resident set size (kbytes): 98468
	Average resident set size (kbytes): 0
	Major (requiring I/O) page faults: 0
	Minor (reclaiming a frame) page faults: 21573
	Voluntary context switches: 4650
	Involuntary context switches: 308
	Swaps: 0
	File system inputs: 0
	File system outputs: 16
	Socket messages sent: 0
	Socket messages received: 0
	Signals delivered: 0
	Page size (bytes): 4096
	Exit status: 0
